750
1000 1000
1 700 385
2 699 135
3 699 818
4 696 996
5 695 999
6 695 493
7 694 547
8 694 116
9 693 391
10 693 175
11 692 147
12 692 147
13 692 657
14 690 61
15 690 244
16 689 611
17 689 659
18 687 784
19 686 281
20 685 348
21 685 703
22 684 754
23 684 272
24 683 282
25 683 315
26 682 405
27 682 660
28 681 542
29 680 857
30 680 158
31 677 448
32 675 174
33 674 66
34 674 348
35 674 860
36 672 92
37 671 80
38 670 525
39 670 510
40 670 730
41 668 950
42 667 482
43 667 445
44 666 714
45 665 518
46 663 799
47 663 710
48 661 235
49 661 185
50 660 202
51 660 417
52 660 90
53 659 19
54 659 372
55 658 915
56 658 787
57 658 914
58 658 380
59 658 594
60 657 772
61 657 971
62 656 218
63 656 998
64 654 561
65 654 566
66 653 224
67 653 624
68 652 409
69 650 682
70 650 711
71 649 916
72 648 905
73 648 486
74 647 478
75 647 336
76 647 886
77 647 655
78 647 83
79 646 895
80 646 382
81 644 857
82 644 283
83 643 814
84 642 504
85 642 714
86 642 722
87 641 972
88 639 325
89 639 110
90 638 364
91 636 702
92 636 546
93 636 701
94 635 900
95 634 276
96 632 916
97 632 230
98 632 269
99 632 287
100 631 79
101 631 987
102 630 270
103 629 248
104 629 548
105 627 558
106 627 280
107 625 754
108 623 602
109 622 25
110 622 550
111 622 423
112 620 543
113 617 248
114 617 828
115 616 616
116 616 235
117 616 909
118 615 103
119 615 562
120 615 592
121 615 474
122 615 451
123 614 139
124 614 153
125 614 151
126 614 938
127 614 875
128 612 947
129 610 215
130 608 376
131 608 291
132 605 147
133 603 78
134 603 612
135 602 534
136 602 935
137 602 145
138 601 417
139 601 182
140 597 906
141 597 467
142 597 226
143 595 183
144 595 182
145 595 747
146 594 210
147 593 191
148 592 912
149 590 68
150 588 567
151 587 313
152 587 343
153 586 196
154 586 555
155 585 863
156 583 830
157 583 931
158 583 173
159 582 388
160 582 842
161 580 168
162 579 880
163 579 241
164 579 561
165 579 750
166 577 964
167 576 620
168 575 215
169 574 998
170 574 790
171 574 141
172 570 496
173 569 930
174 567 37
175 567 238
176 567 821
177 566 241
178 564 169
179 563 199
180 563 360
181 562 725
182 562 304
183 562 834
184 562 841
185 561 373
186 559 775
187 559 719
188 557 271
189 557 723
190 555 44
191 554 665
192 554 301
193 553 87
194 552 656
195 549 665
196 548 945
197 547 906
198 547 805
199 545 655
200 544 155
201 542 57
202 542 833
203 542 756
204 542 752
205 541 228
206 540 883
207 538 537
208 538 6
209 537 514
210 536 905
211 536 710
212 536 549
213 536 536
214 535 167
215 534 624
216 534 369
217 534 359
218 532 811
219 531 563
220 530 312
221 530 169
222 530 756
223 530 924
224 529 482
225 529 656
226 528 968
227 527 401
228 527 125
229 526 406
230 526 102
231 524 45
232 522 766
233 522 417
234 520 390
235 520 198
236 520 661
237 520 851
238 519 55
239 518 814
240 515 92
241 514 802
242 512 171
243 512 726
244 511 713
245 511 458
246 511 24
247 510 971
248 510 669
249 510 971
250 510 244
251 503 482
252 503 50
253 501 180
254 500 364
255 500 309
256 500 728
257 499 506
258 498 320
259 497 107
260 495 939
261 493 535
262 493 489
263 490 38
264 489 961
265 489 153
266 488 234
267 487 122
268 487 89
269 486 622
270 486 986
271 485 485
272 484 477
273 484 982
274 483 170
275 482 681
276 482 883
277 482 623
278 481 361
279 481 335
280 481 233
281 479 606
282 478 466
283 477 492
284 476 839
285 475 685
286 474 96
287 474 567
288 473 292
289 473 924
290 472 563
291 472 0
292 470 234
293 470 764
294 467 427
295 467 731
296 467 399
297 467 692
298 466 981
299 464 790
300 464 317
301 464 435
302 464 574
303 463 880
304 461 856
305 461 820
306 460 915
307 459 807
308 459 555
309 459 455
310 459 619
311 459 840
312 458 943
313 458 407
314 458 728
315 458 944
316 458 764
317 455 374
318 454 432
319 451 447
320 451 852
321 450 471
322 449 391
323 449 631
324 448 572
325 448 321
326 447 164
327 447 447
328 446 899
329 446 742
330 445 48
331 444 524
332 444 80
333 444 908
334 443 978
335 443 326
336 443 336
337 441 390
338 440 740
339 438 192
340 438 312
341 437 859
342 436 588
343 436 288
344 435 448
345 435 704
346 434 828
347 434 898
348 431 403
349 428 220
350 426 612
351 426 680
352 426 427
353 425 418
354 423 653
355 423 520
356 423 973
357 423 15
358 422 714
359 422 624
360 421 570
361 419 967
362 418 169
363 417 209
364 417 220
365 417 27
366 416 413
367 415 47
368 415 317
369 414 980
370 414 779
371 413 51
372 413 930
373 413 714
374 413 980
375 413 899
376 410 937
377 409 229
378 409 93
379 408 517
380 407 545
381 407 667
382 406 92
383 406 467
384 404 699
385 404 572
386 403 630
387 402 98
388 402 799
389 402 267
390 401 37
391 400 869
392 400 568
393 399 501
394 396 201
395 395 504
396 392 857
397 389 338
398 388 657
399 388 136
400 387 394
401 386 172
402 386 359
403 385 345
404 384 563
405 382 297
406 381 50
407 380 397
408 379 961
409 379 87
410 379 539
411 378 553
412 376 598
413 376 866
414 374 415
415 374 804
416 373 906
417 373 544
418 372 177
419 372 479
420 371 426
421 370 357
422 368 207
423 366 265
424 365 912
425 364 999
426 364 131
427 363 653
428 361 696
429 359 442
430 358 247
431 358 122
432 358 172
433 357 100
434 357 56
435 356 787
436 355 457
437 355 817
438 354 50
439 351 636
440 351 993
441 351 733
442 351 572
443 349 633
444 347 271
445 347 760
446 346 242
447 344 539
448 344 988
449 341 337
450 340 150
451 340 897
452 340 854
453 340 912
454 338 376
455 337 618
456 336 812
457 334 767
458 334 290
459 333 497
460 333 671
461 330 171
462 327 56
463 326 213
464 326 87
465 325 680
466 324 287
467 323 523
468 323 416
469 322 442
470 322 975
471 322 666
472 320 654
473 320 686
474 320 399
475 318 636
476 318 662
477 318 131
478 318 245
479 314 773
480 314 51
481 314 912
482 312 614
483 310 494
484 309 557
485 307 159
486 307 364
487 306 289
488 306 857
489 304 36
490 303 292
491 302 974
492 302 445
493 302 169
494 301 347
495 301 473
496 300 987
497 299 292
498 297 849
499 296 670
500 295 355
501 294 642
502 294 798
503 294 999
504 293 231
505 291 908
506 288 68
507 288 865
508 286 271
509 286 332
510 286 183
511 285 988
512 285 914
513 283 344
514 283 955
515 282 566
516 281 617
517 280 970
518 279 666
519 278 659
520 278 907
521 277 313
522 276 615
523 276 700
524 275 538
525 274 48
526 274 873
527 274 446
528 274 847
529 273 238
530 273 633
531 272 440
532 271 931
533 270 361
534 270 249
535 270 930
536 267 806
537 266 720
538 262 964
539 262 530
540 261 578
541 259 240
542 258 834
543 258 197
544 257 429
545 256 522
546 254 332
547 254 696
548 254 168
549 254 786
550 254 495
551 253 656
552 253 876
553 253 537
554 252 324
555 251 171
556 251 14
557 249 26
558 247 874
559 247 40
560 246 456
561 245 546
562 244 181
563 243 859
564 243 433
565 243 701
566 242 800
567 241 895
568 240 23
569 240 481
570 238 526
571 238 905
572 238 932
573 237 753
574 237 174
575 236 802
576 233 138
577 233 897
578 233 900
579 232 286
580 229 538
581 229 136
582 229 59
583 227 60
584 227 236
585 227 1000
586 226 688
587 225 329
588 225 700
589 224 955
590 223 444
591 221 271
592 221 84
593 220 867
594 220 311
595 218 181
596 217 796
597 216 98
598 216 58
599 214 658
600 212 349
601 212 836
602 212 632
603 211 185
604 210 84
605 209 924
606 209 762
607 209 456
608 208 416
609 206 406
610 206 595
611 206 965
612 204 214
613 204 536
614 203 421
615 203 148
616 203 788
617 202 193
618 201 408
619 201 806
620 200 128
621 199 441
622 198 665
623 198 797
624 198 995
625 198 575
626 198 6
627 197 760
628 196 768
629 193 68
630 193 447
631 192 378
632 192 955
633 190 789
634 190 743
635 189 644
636 188 241
637 187 329
638 185 636
639 183 230
640 182 405
641 181 836
642 179 864
643 178 430
644 177 249
645 177 403
646 177 528
647 177 534
648 176 962
649 176 316
650 176 483
651 175 25
652 174 84
653 173 502
654 173 951
655 172 12
656 172 539
657 171 865
658 168 735
659 168 123
660 167 851
661 167 654
662 165 664
663 164 828
664 164 773
665 164 816
666 164 121
667 164 971
668 162 36
669 162 502
670 162 211
671 162 365
672 161 333
673 160 85
674 160 160
675 159 832
676 159 806
677 159 170
678 158 48
679 157 83
680 156 926
681 155 253
682 155 774
683 154 67
684 152 373
685 150 706
686 149 141
687 147 958
688 146 777
689 145 501
690 145 421
691 143 640
692 141 227
693 141 95
694 140 659
695 139 147
696 136 496
697 135 755
698 135 810
699 135 179
700 134 677
701 134 547
702 132 302
703 131 663
704 131 19
705 131 5
706 129 639
707 128 577
708 128 699
709 127 838
710 126 897
711 126 152
712 126 95
713 126 128
714 125 16
715 124 379
716 123 509
717 123 204
718 122 697
719 122 867
720 122 816
721 121 760
722 121 570
723 120 207
724 119 735
725 118 880
726 118 126
727 117 31
728 116 307
729 116 726
730 114 118
731 113 521
732 112 346
733 112 79
734 111 827
735 111 668
736 111 543
737 110 698
738 109 71
739 107 202
740 106 73
741 106 991
742 106 37
743 105 300
744 105 566
745 105 143
746 104 701
747 102 417
748 101 350
749 100 62
750 100 116
